(declare-fun temp50667_1 () (_ BitVec 64))
(declare-fun temp50667_2 () (_ BitVec 64))
(declare-fun var77740 () (_ BitVec 64))
(declare-fun k!0 () Bool)
(declare-fun ARGNAME_input_1_NAMEEND_DIM () (_ BitVec 64))
(declare-fun ARGNAME_data_format_NAMEEND_STRFMT () (_ BitVec 64))
(declare-fun temp50667_3 () (_ BitVec 64))
(declare-fun ARGNAME_input_2_NAMEEND_DIM () (_ BitVec 64))
(declare-fun var77770 () (_ BitVec 64))
(declare-fun temp50667_4 () (_ BitVec 64))
(declare-fun temp50667_5 () (_ BitVec 64))
(declare-fun ARGNAME_input_1_NAMEEND_DIMSIZE
             ()
             (Array (_ BitVec 64) (_ BitVec 64)))
(declare-fun temp50667_6 () (_ BitVec 64))
(declare-fun temp50667_7 () (_ BitVec 64))
(declare-fun temp50667_8 () (_ BitVec 64))
(declare-fun temp50667_9 () (_ BitVec 64))
(declare-fun temp50667_10 () (_ BitVec 64))
(declare-fun temp50667_11 () (_ BitVec 64))
(declare-fun temp50667_12 () (_ BitVec 64))
(declare-fun temp50667_13 () (_ BitVec 64))
(declare-fun temp50667_14 () (_ BitVec 64))
(declare-fun temp50667_15 () (_ BitVec 64))
(declare-fun temp50667_16 () (_ BitVec 64))
(declare-fun temp50667_17 () (_ BitVec 64))
(declare-fun temp50667_18 () (_ BitVec 64))
(declare-fun var77799 () (_ BitVec 64))
(declare-fun temp50667_19 () (_ BitVec 64))
(declare-fun ARGNAME_input_2_NAMEEND_DIMSIZE
             ()
             (Array (_ BitVec 64) (_ BitVec 64)))
(declare-fun temp50667_20 () (_ BitVec 64))
(declare-fun temp50667_21 () (_ BitVec 64))
(declare-fun temp50667_22 () (_ BitVec 64))
(declare-fun temp50667_23 () (_ BitVec 64))
(declare-fun temp50667_24 () (_ BitVec 64))
(declare-fun temp50667_25 () (_ BitVec 64))
(declare-fun temp50667_26 () (_ BitVec 64))
(declare-fun temp50667_27 () (_ BitVec 64))
(declare-fun temp50667_28 () (_ BitVec 64))
(declare-fun temp50667_29 () (_ BitVec 64))
(declare-fun temp50667_30 () (_ BitVec 64))
(declare-fun temp50667_31 () (_ BitVec 64))
(declare-fun temp50667_32 () (_ BitVec 64))
(declare-fun var77832 () (_ BitVec 64))
(declare-fun temp50667_33 () (_ BitVec 64))
(declare-fun temp50667_34 () (_ BitVec 64))
(declare-fun var77833 () (_ BitVec 64))
(declare-fun var77834 () (_ BitVec 64))
(declare-fun temp50667_35 () (_ BitVec 64))
(declare-fun temp50667_36 () (_ BitVec 64))
(declare-fun var275510 () (_ BitVec 64))
(declare-fun temp50667_37 () (_ BitVec 64))
(declare-fun var275528 () (_ BitVec 64))
(declare-fun temp50667_38 () (_ BitVec 64))
(declare-fun temp50667_40 () (_ BitVec 64))
(declare-fun temp50667_39 () (_ BitVec 64))
(declare-fun temp50667_42 () (_ BitVec 64))
(declare-fun temp50667_41 () (_ BitVec 64))
(declare-fun temp50667_43 () (_ BitVec 64))
(declare-fun var406582 () (_ BitVec 64))
(declare-fun temp50667_44 () (_ BitVec 64))
(declare-fun var406600 () (_ BitVec 64))
(declare-fun temp50667_45 () (_ BitVec 64))
(declare-fun temp50667_47 () (_ BitVec 64))
(declare-fun temp50667_46 () (_ BitVec 64))
(declare-fun temp50667_48 () (_ BitVec 64))
(declare-fun var603190 () (_ BitVec 64))
(declare-fun temp50667_49 () (_ BitVec 64))
(declare-fun var603208 () (_ BitVec 64))
(declare-fun temp50667_50 () (_ BitVec 64))
(declare-fun temp50667_52 () (_ BitVec 64))
(declare-fun temp50667_51 () (_ BitVec 64))
(declare-fun temp50667_54 () (_ BitVec 64))
(declare-fun temp50667_53 () (_ BitVec 64))
(declare-fun temp50667_56 () (_ BitVec 64))
(declare-fun temp50667_55 () (_ BitVec 64))
(declare-fun temp50667_58 () (_ BitVec 64))
(declare-fun temp50667_57 () (_ BitVec 64))
(declare-fun temp50667_59 () (_ BitVec 64))
(declare-fun var861259 () (_ BitVec 64))
(declare-fun var861238 () (_ BitVec 64))
(declare-fun var795670 () (_ BitVec 64))
(declare-fun temp50667_60 () (_ BitVec 64))
(declare-fun temp50667_61 () (_ BitVec 64))
(declare-fun var926795 () (_ BitVec 64))
(declare-fun var926774 () (_ BitVec 64))
(declare-fun var795680 () (_ BitVec 64))
(declare-fun temp50667_62 () (_ BitVec 64))
(declare-fun temp50667_63 () (_ BitVec 64))
(declare-fun var1123378 () (_ BitVec 64))
(declare-fun temp50667_64 () (_ BitVec 64))
(declare-fun var1188914 () (_ BitVec 64))
(declare-fun temp50667_65 () (_ BitVec 64))
(declare-fun var1254450 () (_ BitVec 64))
(declare-fun temp50667_67 () (_ BitVec 64))
(declare-fun temp50667_66 () (_ BitVec 64))
(declare-fun temp50667_69 () (_ BitVec 64))
(declare-fun temp50667_68 () (_ BitVec 64))
(declare-fun temp50667_70 () (_ BitVec 64))
(declare-fun var78544 () (_ BitVec 64))
(declare-fun temp50667_71 () (_ BitVec 64))
(declare-fun var78545 () (_ BitVec 64))
(assert (or (= ARGNAME_data_format_NAMEEND_STRFMT #x0000000000000000)
    (= ARGNAME_data_format_NAMEEND_STRFMT #x0000000000000001)
    (= ARGNAME_data_format_NAMEEND_STRFMT #x0000000000000002)
    (= ARGNAME_data_format_NAMEEND_STRFMT #x0000000000000003)
    (= ARGNAME_data_format_NAMEEND_STRFMT #x0000000000000004)
    (= ARGNAME_data_format_NAMEEND_STRFMT #x0000000000000005)))
(assert (= temp50667_1 #x0000000000000005))
(assert (= var77740
   (ite (= ARGNAME_input_1_NAMEEND_DIM temp50667_1)
        #x0000000000000001
        #x0000000000000000)))
(assert (= temp50667_2 #x0000000000000001))
(assert (= var77740 temp50667_2))
(assert (= temp50667_3 #x0000000000000005))
(assert (= var77770
   (ite (= ARGNAME_input_2_NAMEEND_DIM temp50667_3)
        #x0000000000000001
        #x0000000000000000)))
(assert (= temp50667_4 #x0000000000000001))
(assert (= var77770 temp50667_4))
(assert (= temp50667_5 #x0000000000000000))
(assert (= temp50667_6 (select ARGNAME_input_1_NAMEEND_DIMSIZE temp50667_5)))
(assert (= temp50667_7 #x0000000000000001))
(assert (= temp50667_8 (select ARGNAME_input_1_NAMEEND_DIMSIZE temp50667_7)))
(assert (= temp50667_9 #x0000000000000002))
(assert (= temp50667_10 (select ARGNAME_input_1_NAMEEND_DIMSIZE temp50667_9)))
(assert (= temp50667_11 #x0000000000000003))
(assert (= temp50667_12 (select ARGNAME_input_1_NAMEEND_DIMSIZE temp50667_11)))
(assert (= temp50667_13 #x0000000000000004))
(assert (= temp50667_14 (select ARGNAME_input_1_NAMEEND_DIMSIZE temp50667_13)))
(assert (= temp50667_15 #x0000000000000005))
(assert (= temp50667_16 (select ARGNAME_input_1_NAMEEND_DIMSIZE temp50667_15)))
(assert (= temp50667_17 #x0000000000000003))
(assert (= temp50667_18 (select ARGNAME_input_1_NAMEEND_DIMSIZE temp50667_17)))
(assert (= var77799 temp50667_18))
(assert (= temp50667_19 #x0000000000000000))
(assert (= temp50667_20 (select ARGNAME_input_2_NAMEEND_DIMSIZE temp50667_19)))
(assert (= temp50667_21 #x0000000000000001))
(assert (= temp50667_22 (select ARGNAME_input_2_NAMEEND_DIMSIZE temp50667_21)))
(assert (= temp50667_23 #x0000000000000002))
(assert (= temp50667_24 (select ARGNAME_input_2_NAMEEND_DIMSIZE temp50667_23)))
(assert (= temp50667_25 #x0000000000000003))
(assert (= temp50667_26 (select ARGNAME_input_2_NAMEEND_DIMSIZE temp50667_25)))
(assert (= temp50667_27 #x0000000000000004))
(assert (= temp50667_28 (select ARGNAME_input_2_NAMEEND_DIMSIZE temp50667_27)))
(assert (= temp50667_29 #x0000000000000005))
(assert (= temp50667_30 (select ARGNAME_input_2_NAMEEND_DIMSIZE temp50667_29)))
(assert (= temp50667_31 #x0000000000000004))
(assert (= temp50667_32 (select ARGNAME_input_2_NAMEEND_DIMSIZE temp50667_31)))
(assert (= var77832 temp50667_32))
(assert (= temp50667_33 #x0000000000000004))
(assert (= temp50667_34 (select ARGNAME_input_1_NAMEEND_DIMSIZE temp50667_33)))
(assert (= var77833 temp50667_34))
(assert (= var77834 (ite (= var77832 var77833) #x0000000000000001 #x0000000000000000)))
(assert (= temp50667_35 #x0000000000000001))
(assert (= var77834 temp50667_35))
(assert (= temp50667_36 #x0000000000000001))
(assert (= var275510 temp50667_36))
(assert (= temp50667_37 #x0000000000000001))
(assert (= var275528
   (ite (bvslt var275510 temp50667_37) #x0000000000000001 #x0000000000000000)))
(assert (= temp50667_38 #x0000000000000000))
(assert (= var275528 temp50667_38))
(assert (= temp50667_40 #x0000000000000000))
(assert (= temp50667_39 temp50667_40))
(assert (= temp50667_42 #x0000000000000000))
(assert (= temp50667_41 temp50667_42))
(assert (= temp50667_43 #x0000000000000001))
(assert (= var406582 temp50667_43))
(assert (= temp50667_44 #x0000000000000001))
(assert (= var406600
   (ite (bvslt var406582 temp50667_44) #x0000000000000001 #x0000000000000000)))
(assert (= temp50667_45 #x0000000000000000))
(assert (= var406600 temp50667_45))
(assert (= temp50667_47 #x0000000000000000))
(assert (= temp50667_46 temp50667_47))
(assert (= temp50667_48 #x0000000000000001))
(assert (= var603190 temp50667_48))
(assert (= temp50667_49 #x0000000000000001))
(assert (= var603208
   (ite (bvslt var603190 temp50667_49) #x0000000000000001 #x0000000000000000)))
(assert (= temp50667_50 #x0000000000000000))
(assert (= var603208 temp50667_50))
(assert (= temp50667_52 #x0000000000000000))
(assert (= temp50667_51 temp50667_52))
(assert (= temp50667_54 #x00000000000000ff))
(assert (= temp50667_53 temp50667_54))
(assert (= temp50667_56 #x00000000000000ff))
(assert (= temp50667_55 temp50667_56))
(assert (= temp50667_58 #x00000000000000ff))
(assert (= temp50667_57 temp50667_58))
(assert (= temp50667_59 #x0000000000000000))
(assert (= var861259 temp50667_59))
(assert (= var861238 var861259))
(assert (= var795670 var861238))
(assert (= temp50667_60 #x0000000000000000))
(assert (= var795670 temp50667_60))
(assert (= temp50667_61 #x0000000000000000))
(assert (= var926795 temp50667_61))
(assert (= var926774 var926795))
(assert (= var795680 var926774))
(assert (= temp50667_62 #x0000000000000000))
(assert (= var795680 temp50667_62))
(assert (= temp50667_63 #x0000000000008000))
(assert (= var1123378 temp50667_63))
(assert (= temp50667_64 #x0000000000040000))
(assert (= var1188914 temp50667_64))
(assert (= temp50667_65 #x0000000000200000))
(assert (= var1254450 temp50667_65))
(assert (= temp50667_67 #x0000000000000001))
(assert (= temp50667_66 temp50667_67))
(assert (= temp50667_69 #x0000000000000001))
(assert (= temp50667_68 temp50667_69))
(assert (= temp50667_70 #x0000000000000000))
(assert (= var78544 temp50667_70))
(assert (= temp50667_71 #x0000000000000001))
(assert (= var78545 (bvadd var78544 temp50667_71)))
(model-add temp50667_1 () (_ BitVec 64) #x0000000000000005)
(model-add temp50667_2 () (_ BitVec 64) #x0000000000000001)
(model-add var77740 () (_ BitVec 64) #x0000000000000001)
(model-del k!0)
(model-add ARGNAME_input_1_NAMEEND_DIM
           ()
           (_ BitVec 64)
           (ite k!0 #x0000000000000005 (bvnot #x0000000000000005)))

